50
    52    93    34    36    77    36    21    75    29    44    20    98    45    52    15    45    80    34    56    49     4     2    57    31     1    12    99     4    73    59    28    71    35    80    56    26    21    51    60    53    78    89    83    28    69    52    35    15    73    39
    10     5     1    10     9     3     2    10     3     4     6     5     5     5     3     4     6     7    10     5     8     2     4     3     1     4     4    10     8     1     5     5     7     1     5     4     2     6    10    10     8     8     6     5     9     4     8     7     2    10
  1679   498  1368  1584  1603  1218  1690  1261  1608   870   867   769   278   146  1551  1250   547  1631  1394   487  1689   964   710   683  1749  1732  1584    90   926   932   328   784   212    65  1796   296   973    99   437  1289  1684  1163   309  1288  1314  1307  1839   454  1758     0
